p cnf 391 870
1 -2 0
2 -1 0
3 4 0
5 4 0
-3 -5 -4 0
-6 4 -7 0
6 -4 -7 0
7 -4 -6 0
6 4 7 0
-7 0
8 9 0
10 9 0
-8 -10 -9 0
-5 9 -11 0
5 -9 -11 0
11 -9 -5 0
5 9 11 0
-11 0
10 12 0
13 12 0
-10 -13 -12 0
-8 12 -14 0
8 -12 -14 0
14 -12 -8 0
8 12 14 0
-14 0
15 16 0
17 16 0
-15 -17 -16 0
-18 16 -19 0
18 -16 -19 0
19 -16 -18 0
18 16 19 0
-19 0
6 20 0
21 20 0
-6 -21 -20 0
-17 20 -22 0
17 -20 -22 0
22 -20 -17 0
17 20 22 0
-22 0
23 24 0
25 24 0
-23 -25 -24 0
-26 24 -27 0
26 -24 -27 0
27 -24 -26 0
26 24 27 0
-27 0
28 29 0
30 29 0
-28 -30 -29 0
-25 29 -31 0
25 -29 -31 0
31 -29 -25 0
25 29 31 0
-31 0
32 33 0
34 33 0
-32 -34 -33 0
-30 33 -35 0
30 -33 -35 0
35 -33 -30 0
30 33 35 0
-35 0
36 37 0
38 37 0
-36 -38 -37 0
-34 37 -39 0
34 -37 -39 0
39 -37 -34 0
34 37 39 0
-39 0
40 41 0
42 41 0
-40 -42 -41 0
-38 41 -43 0
38 -41 -43 0
43 -41 -38 0
38 41 43 0
-43 0
32 44 0
36 44 0
42 44 0
45 44 0
-46 0
-40 44 -47 0
40 -44 -47 0
47 -44 -40 0
40 44 47 0
-47 0
48 49 0
50 49 0
-48 -50 -49 0
-51 49 -52 0
51 -49 -52 0
52 -49 -51 0
51 49 52 0
-52 0
53 54 0
55 54 0
-53 -55 -54 0
-50 54 -56 0
50 -54 -56 0
56 -54 -50 0
50 54 56 0
-56 0
57 58 0
59 58 0
-57 -59 -58 0
-55 58 -60 0
55 -58 -60 0
60 -58 -55 0
55 58 60 0
-60 0
61 62 0
63 62 0
-61 -63 -62 0
-59 62 -64 0
59 -62 -64 0
64 -62 -59 0
59 62 64 0
-64 0
65 66 0
67 66 0
-65 -67 -66 0
-63 66 -68 0
63 -66 -68 0
68 -66 -63 0
63 66 68 0
-68 0
57 69 0
61 69 0
65 69 0
70 69 0
-71 0
-67 69 -72 0
67 -69 -72 0
72 -69 -67 0
67 69 72 0
-72 0
73 74 0
75 74 0
-73 -75 -74 0
-76 74 -77 0
76 -74 -77 0
77 -74 -76 0
76 74 77 0
-77 0
78 79 0
80 79 0
-78 -80 -79 0
-73 79 -81 0
73 -79 -81 0
81 -79 -73 0
73 79 81 0
-81 0
1 82 0
83 82 0
-1 -83 -82 0
-80 82 -84 0
80 -82 -84 0
84 -82 -80 0
80 82 84 0
-84 0
85 86 0
87 86 0
-85 -87 -86 0
-88 86 -89 0
88 -86 -89 0
89 -86 -88 0
88 86 89 0
-89 0
90 91 0
92 91 0
-90 -92 -91 0
-87 91 -93 0
87 -91 -93 0
93 -91 -87 0
87 91 93 0
-93 0
94 95 0
96 95 0
-94 -96 -95 0
-92 95 -97 0
92 -95 -97 0
97 -95 -92 0
92 95 97 0
-97 0
98 99 0
100 99 0
-98 -100 -99 0
-96 99 -101 0
96 -99 -101 0
101 -99 -96 0
96 99 101 0
-101 0
102 103 0
104 103 0
-102 -104 -103 0
-100 103 -105 0
100 -103 -105 0
105 -103 -100 0
100 103 105 0
-105 0
98 106 0
102 106 0
107 106 0
-98 -102 -107 -106 0
-104 106 -108 0
104 -106 -108 0
108 -106 -104 0
104 106 108 0
-108 0
109 110 0
111 110 0
-109 -111 -110 0
-112 110 -113 0
112 -110 -113 0
113 -110 -112 0
112 110 113 0
-113 0
73 114 0
115 114 0
-73 -115 -114 0
-111 114 -116 0
111 -114 -116 0
116 -114 -111 0
111 114 116 0
-116 0
117 118 0
119 118 0
-117 -119 -118 0
-120 118 -121 0
120 -118 -121 0
121 -118 -120 0
120 118 121 0
-121 0
92 122 0
123 122 0
-92 -123 -122 0
-119 122 -124 0
119 -122 -124 0
124 -122 -119 0
119 122 124 0
-124 0
125 126 0
127 126 0
-125 -127 -126 0
-128 126 -129 0
128 -126 -129 0
129 -126 -128 0
128 126 129 0
-129 0
130 131 0
132 131 0
-130 -132 -131 0
-127 131 -133 0
127 -131 -133 0
133 -131 -127 0
127 131 133 0
-133 0
134 135 0
136 135 0
-134 -136 -135 0
-132 135 -137 0
132 -135 -137 0
137 -135 -132 0
132 135 137 0
-137 0
59 138 0
139 138 0
-59 -139 -138 0
-136 138 -140 0
136 -138 -140 0
140 -138 -136 0
136 138 140 0
-140 0
141 142 0
143 142 0
-141 -143 -142 0
-144 142 -145 0
144 -142 -145 0
145 -142 -144 0
144 142 145 0
-145 0
146 147 0
148 147 0
-146 -148 -147 0
-143 147 -149 0
143 -147 -149 0
149 -147 -143 0
143 147 149 0
-149 0
8 150 0
151 150 0
-8 -151 -150 0
-148 150 -152 0
148 -150 -152 0
152 -150 -148 0
148 150 152 0
-152 0
153 154 0
155 154 0
-153 -155 -154 0
-156 154 -157 0
156 -154 -157 0
157 -154 -156 0
156 154 157 0
-157 0
104 158 0
159 158 0
-104 -159 -158 0
-155 158 -160 0
155 -158 -160 0
160 -158 -155 0
155 158 160 0
-160 0
17 161 0
162 161 0
-17 -162 -161 0
-163 161 -164 0
163 -161 -164 0
164 -161 -163 0
163 161 164 0
-164 0
165 166 0
167 166 0
-165 -167 -166 0
-168 166 -169 0
168 -166 -169 0
169 -166 -168 0
168 166 169 0
-169 0
170 171 0
172 171 0
-170 -172 -171 0
-167 171 -173 0
167 -171 -173 0
173 -171 -167 0
167 171 173 0
-173 0
174 175 0
176 175 0
-174 -176 -175 0
-172 175 -177 0
172 -175 -177 0
177 -175 -172 0
172 175 177 0
-177 0
178 179 0
180 179 0
-178 -180 -179 0
-176 179 -181 0
176 -179 -181 0
181 -179 -176 0
176 179 181 0
-181 0
182 183 0
184 183 0
-182 -184 -183 0
-180 183 -185 0
180 -183 -185 0
185 -183 -180 0
180 183 185 0
-185 0
186 187 0
188 187 0
-186 -188 -187 0
-184 187 -189 0
184 -187 -189 0
189 -187 -184 0
184 187 189 0
-189 0
182 190 0
186 190 0
191 190 0
-182 -186 -191 -190 0
-188 190 -192 0
188 -190 -192 0
192 -190 -188 0
188 190 192 0
-192 0
193 194 0
195 194 0
-193 -195 -194 0
-196 194 -197 0
196 -194 -197 0
197 -194 -196 0
196 194 197 0
-197 0
198 199 0
200 199 0
-198 -200 -199 0
-195 199 -201 0
195 -199 -201 0
201 -199 -195 0
195 199 201 0
-201 0
202 203 0
204 203 0
-202 -204 -203 0
-200 203 -205 0
200 -203 -205 0
205 -203 -200 0
200 203 205 0
-205 0
40 206 0
207 206 0
-40 -207 -206 0
-204 206 -208 0
204 -206 -208 0
208 -206 -204 0
204 206 208 0
-208 0
209 210 0
211 210 0
-209 -211 -210 0
-212 210 -213 0
212 -210 -213 0
213 -210 -212 0
212 210 213 0
-213 0
34 214 0
215 214 0
-34 -215 -214 0
-211 214 -216 0
211 -214 -216 0
216 -214 -211 0
211 214 216 0
-216 0
217 218 0
219 218 0
-217 -219 -218 0
-220 218 -221 0
220 -218 -221 0
221 -218 -220 0
220 218 221 0
-221 0
222 223 0
224 223 0
-222 -224 -223 0
-219 223 -225 0
219 -223 -225 0
225 -223 -219 0
219 223 225 0
-225 0
100 226 0
227 226 0
-100 -227 -226 0
-224 226 -228 0
224 -226 -228 0
228 -226 -224 0
224 226 228 0
-228 0
229 230 0
231 230 0
-229 -231 -230 0
-232 230 -233 0
232 -230 -233 0
233 -230 -232 0
232 230 233 0
-233 0
234 235 0
236 235 0
-234 -236 -235 0
-231 235 -237 0
231 -235 -237 0
237 -235 -231 0
231 235 237 0
-237 0
238 239 0
240 239 0
-238 -240 -239 0
-234 239 -241 0
234 -239 -241 0
241 -239 -234 0
234 239 241 0
-241 0
238 242 0
243 242 0
-238 -243 -242 0
-240 242 -244 0
240 -242 -244 0
244 -242 -240 0
240 242 244 0
-244 0
245 246 0
247 246 0
-245 -247 -246 0
-248 246 -249 0
248 -246 -249 0
249 -246 -248 0
248 246 249 0
-249 0
250 251 0
252 251 0
-250 -252 -251 0
-247 251 -253 0
247 -251 -253 0
253 -251 -247 0
247 251 253 0
-253 0
254 255 0
256 255 0
-254 -256 -255 0
-252 255 -257 0
252 -255 -257 0
257 -255 -252 0
252 255 257 0
-257 0
245 258 0
250 258 0
254 258 0
259 258 0
-260 0
-256 258 -261 0
256 -258 -261 0
261 -258 -256 0
256 258 261 0
-261 0
262 -2 -263 0
2 -262 -263 0
-262 -2 263 0
2 262 263 0
-263 0
264 -3 -265 0
3 -264 -265 0
-264 -3 265 0
3 264 265 0
-265 0
266 -10 -267 0
10 -266 -267 0
-266 -10 267 0
10 266 267 0
-267 0
268 -13 -269 0
13 -268 -269 0
-268 -13 269 0
13 268 269 0
-269 0
270 -15 -271 0
15 -270 -271 0
-270 -15 271 0
15 270 271 0
-271 0
272 -21 -273 0
21 -272 -273 0
-272 -21 273 0
21 272 273 0
-273 0
274 -23 -275 0
23 -274 -275 0
-274 -23 275 0
23 274 275 0
-275 0
276 -28 -277 0
28 -276 -277 0
-276 -28 277 0
28 276 277 0
-277 0
278 -32 -279 0
32 -278 -279 0
-278 -32 279 0
32 278 279 0
-279 0
280 -36 -281 0
36 -280 -281 0
-280 -36 281 0
36 280 281 0
-281 0
282 -42 -283 0
42 -282 -283 0
-282 -42 283 0
42 282 283 0
-283 0
284 -45 -285 0
45 -284 -285 0
-284 -45 285 0
45 284 285 0
-285 0
286 -48 -287 0
48 -286 -287 0
-286 -48 287 0
48 286 287 0
-287 0
288 -53 -289 0
53 -288 -289 0
-288 -53 289 0
53 288 289 0
-289 0
290 -57 -291 0
57 -290 -291 0
-290 -57 291 0
57 290 291 0
-291 0
292 -61 -293 0
61 -292 -293 0
-292 -61 293 0
61 292 293 0
-293 0
294 -65 -295 0
65 -294 -295 0
-294 -65 295 0
65 294 295 0
-295 0
296 -70 -297 0
70 -296 -297 0
-296 -70 297 0
70 296 297 0
-297 0
298 -75 -299 0
75 -298 -299 0
-298 -75 299 0
75 298 299 0
-299 0
300 -78 -301 0
78 -300 -301 0
-300 -78 301 0
78 300 301 0
-301 0
302 -83 -303 0
83 -302 -303 0
-302 -83 303 0
83 302 303 0
-303 0
304 -85 -305 0
85 -304 -305 0
-304 -85 305 0
85 304 305 0
-305 0
306 -90 -307 0
90 -306 -307 0
-306 -90 307 0
90 306 307 0
-307 0
308 -94 -309 0
94 -308 -309 0
-308 -94 309 0
94 308 309 0
-309 0
310 -98 -311 0
98 -310 -311 0
-310 -98 311 0
98 310 311 0
-311 0
312 -102 -313 0
102 -312 -313 0
-312 -102 313 0
102 312 313 0
-313 0
314 -107 -315 0
107 -314 -315 0
-314 -107 315 0
107 314 315 0
-315 0
316 -109 -317 0
109 -316 -317 0
-316 -109 317 0
109 316 317 0
-317 0
318 -115 -319 0
115 -318 -319 0
-318 -115 319 0
115 318 319 0
-319 0
320 -117 -321 0
117 -320 -321 0
-320 -117 321 0
117 320 321 0
-321 0
322 -123 -323 0
123 -322 -323 0
-322 -123 323 0
123 322 323 0
-323 0
324 -125 -325 0
125 -324 -325 0
-324 -125 325 0
125 324 325 0
-325 0
326 -130 -327 0
130 -326 -327 0
-326 -130 327 0
130 326 327 0
-327 0
328 -134 -329 0
134 -328 -329 0
-328 -134 329 0
134 328 329 0
-329 0
330 -139 -331 0
139 -330 -331 0
-330 -139 331 0
139 330 331 0
-331 0
332 -141 -333 0
141 -332 -333 0
-332 -141 333 0
141 332 333 0
-333 0
334 -146 -335 0
146 -334 -335 0
-334 -146 335 0
146 334 335 0
-335 0
336 -151 -337 0
151 -336 -337 0
-336 -151 337 0
151 336 337 0
-337 0
338 -153 -339 0
153 -338 -339 0
-338 -153 339 0
153 338 339 0
-339 0
340 -159 -341 0
159 -340 -341 0
-340 -159 341 0
159 340 341 0
-341 0
342 -162 -343 0
162 -342 -343 0
-342 -162 343 0
162 342 343 0
-343 0
344 -165 -345 0
165 -344 -345 0
-344 -165 345 0
165 344 345 0
-345 0
346 -170 -347 0
170 -346 -347 0
-346 -170 347 0
170 346 347 0
-347 0
348 -174 -349 0
174 -348 -349 0
-348 -174 349 0
174 348 349 0
-349 0
350 -178 -351 0
178 -350 -351 0
-350 -178 351 0
178 350 351 0
-351 0
352 -182 -353 0
182 -352 -353 0
-352 -182 353 0
182 352 353 0
-353 0
354 -186 -355 0
186 -354 -355 0
-354 -186 355 0
186 354 355 0
-355 0
356 -191 -357 0
191 -356 -357 0
-356 -191 357 0
191 356 357 0
-357 0
358 -193 -359 0
193 -358 -359 0
-358 -193 359 0
193 358 359 0
-359 0
360 -198 -361 0
198 -360 -361 0
-360 -198 361 0
198 360 361 0
-361 0
362 -202 -363 0
202 -362 -363 0
-362 -202 363 0
202 362 363 0
-363 0
364 -207 -365 0
207 -364 -365 0
-364 -207 365 0
207 364 365 0
-365 0
366 -209 -367 0
209 -366 -367 0
-366 -209 367 0
209 366 367 0
-367 0
368 -215 -369 0
215 -368 -369 0
-368 -215 369 0
215 368 369 0
-369 0
370 -217 -371 0
217 -370 -371 0
-370 -217 371 0
217 370 371 0
-371 0
372 -222 -373 0
222 -372 -373 0
-372 -222 373 0
222 372 373 0
-373 0
374 -227 -375 0
227 -374 -375 0
-374 -227 375 0
227 374 375 0
-375 0
376 -229 -377 0
229 -376 -377 0
-376 -229 377 0
229 376 377 0
-377 0
378 -236 -379 0
236 -378 -379 0
-378 -236 379 0
236 378 379 0
-379 0
380 -238 -381 0
238 -380 -381 0
-380 -238 381 0
238 380 381 0
-381 0
382 -243 -383 0
243 -382 -383 0
-382 -243 383 0
243 382 383 0
-383 0
384 -245 -385 0
245 -384 -385 0
-384 -245 385 0
245 384 385 0
-385 0
386 -250 -387 0
250 -386 -387 0
-386 -250 387 0
250 386 387 0
-387 0
388 -254 -389 0
254 -388 -389 0
-388 -254 389 0
254 388 389 0
-389 0
390 -259 -391 0
259 -390 -391 0
-390 -259 391 0
259 390 391 0
-391 0
1 0
-6 0
-8 0
-18 0
-26 0
-40 0
-51 0
-76 0
-73 0
-88 0
-112 0
-120 0
-128 0
-144 0
-156 0
-163 0
-168 0
-196 0
-212 0
-220 0
-232 0
-234 0
-248 0
